p edge 17 64
e 1 2
e 1 3
e 1 4
e 1 5
e 1 6
e 1 7
e 1 8
e 1 9
e 1 10
e 1 11
e 1 12
e 1 14
e 1 15
e 2 3
e 2 4
e 2 5
e 2 6
e 2 8
e 2 9
e 2 10
e 2 13
e 3 5
e 3 6
e 3 8
e 3 9
e 3 11
e 4 7
e 4 10
e 4 11
e 4 12
e 4 14
e 4 15
e 4 16
e 4 17
e 5 6
e 5 8
e 5 9
e 5 13
e 6 8
e 6 9
e 6 13
e 7 10
e 7 11
e 7 12
e 7 14
e 7 15
e 7 16
e 7 17
e 8 9
e 8 13
e 9 13
e 10 12
e 10 14
e 10 17
e 11 12
e 11 15
e 11 16
e 12 14
e 12 15
e 12 16
e 12 17
e 14 17
e 15 16
e 16 17
